Minimize
  - 18 y_0 - 4 y_2 - 13 y_3 - 6 y_4 - 7 y_5 - 6 y_6 - 14 y_7 - 15 y_8
   - 13 y_9 + 96 Constant
Subject To
 c_0: y_2 = 1
 c_1_0: y_0 + y_8 >= 1
 c_1_1: y_1 + y_2 >= 1
 c_1_2: y_1 + y_2 + y_4 + y_5 + y_6 >= 1
 c_1_3: y_3 + y_7 + y_9 >= 1
 c_1_4: y_2 + y_4 + y_5 + y_6 >= 1
 c_1_5: y_2 + y_4 + y_5 + y_6 >= 1
 c_1_6: y_2 + y_4 + y_5 + y_6 >= 1
 c_1_7: y_3 + y_7 + y_8 + y_9 >= 1
 c_1_8: y_0 + y_7 + y_8 >= 1
 c_1_9: y_3 + y_7 + y_9 >= 1
Bounds
 Constant = 1
Binaries
 y_0 y_1 y_2 y_3 y_4 y_5 y_6 y_7 y_8 y_9
End
